34 2000
10 150
10 174
4 160
6 198
3 164
5 185
7 140
11 147
10 197
8 121
11 160
2 111
9 164
4 198
2 197
4 174
8 195
11 147
8 134
10 127
9 164
2 122
10 150
2 145
2 122
9 164
8 195
9 185
3 140
10 127
3 134
7 121
10 145
6 111
